36128 41827 
35990 41896 
36897 41631 
36052 41869 
36279 41791 
35814 41936 
36244 41802 
36430 41780 
36924 41615 
35428 42053 
36168 41816 
36491 41728 
37465 41371 
37201 41481 
37174 41497 
37492 41355 
38359 40877 
37796 41126 
38248 40963 
37843 41107 
38221 40979 
37816 41123 
38386 40861 
38567 40827 
38925 40522 
39394 40175 
39119 40362 
37999 41087 
39824 39845 
